&CONTROL
 calculation='nscf',
 prefix='Si',
 pseudo_dir='../pseudo/',
 outdir='./tmp/',
/
&SYSTEM
 ibrav=2,
 celldm(1)=10.2625,
 nat=2,
 ntyp=1,
 ecutwfc=100.0,
 nbnd=8,
 nosym=.true.,
 noinv=.true.,
/
&ELECTRONS
 mixing_beta=0.7,
 conv_thr=1d-8,
/
ATOMIC_SPECIES
 Si 28.0855 Si_ONCV_PBE-1.2.upf
ATOMIC_POSITIONS (alat)
Si  0.00  0.00  0.00
Si  0.25  0.25  0.25
K_POINTS (automatic)
24 24 24 1 1 1