&CONTROL
    calculation   = 'nscf'
    prefix        = 'GaAs',    
    wf_collect    = .TRUE.,
    etot_conv_thr =  1.0000000000d-05,
    forc_conv_thr =  1.0000000000d-04,      
    pseudo_dir    = '../pseudo/',
    outdir        = './work/',
    verbosity     = 'high'
/

&SYSTEM
    celldm(1)   = 10.68,    
    ecutwfc     = 50.0,
    ibrav       = 2,
    nat         = 2,
    ntyp        = 2,
    occupations = 'smearing',
    smearing    = 'm-p',
    degauss     =  0.01,
    nbnd        = 17
/

&ELECTRONS
   conv_thr         = 1.00000000d-8,
   mixing_beta      = 0.7,
/

ATOMIC_SPECIES
Ga  68.926  Ga.pbe-dn-kjpaw_psl.0.2.UPF 
As  74.922  As.pbe-n-kjpaw_psl.0.2.UPF

ATOMIC_POSITIONS {crystal}
Ga      0.000000   0.000000   0.000000
As      0.250000   0.250000   0.250000

K_POINTS crystal
1000
  0.00000000  0.00000000  0.00000000  1.000000e-03
  0.00000000  0.00000000  0.10000000  1.000000e-03
  0.00000000  0.00000000  0.20000000  1.000000e-03
  0.00000000  0.00000000  0.30000000  1.000000e-03
  0.00000000  0.00000000  0.40000000  1.000000e-03
  0.00000000  0.00000000  0.50000000  1.000000e-03
  0.00000000  0.00000000  0.60000000  1.000000e-03
  0.00000000  0.00000000  0.70000000  1.000000e-03
  0.00000000  0.00000000  0.80000000  1.000000e-03
  0.00000000  0.00000000  0.90000000  1.000000e-03
  0.00000000  0.10000000  0.00000000  1.000000e-03
  0.00000000  0.10000000  0.10000000  1.000000e-03
  0.00000000  0.10000000  0.20000000  1.000000e-03
  0.00000000  0.10000000  0.30000000  1.000000e-03
  0.00000000  0.10000000  0.40000000  1.000000e-03
  0.00000000  0.10000000  0.50000000  1.000000e-03
  0.00000000  0.10000000  0.60000000  1.000000e-03
  0.00000000  0.10000000  0.70000000  1.000000e-03
  0.00000000  0.10000000  0.80000000  1.000000e-03
  0.00000000  0.10000000  0.90000000  1.000000e-03
  0.00000000  0.20000000  0.00000000  1.000000e-03
  0.00000000  0.20000000  0.10000000  1.000000e-03
  0.00000000  0.20000000  0.20000000  1.000000e-03
  0.00000000  0.20000000  0.30000000  1.000000e-03
  0.00000000  0.20000000  0.40000000  1.000000e-03
  0.00000000  0.20000000  0.50000000  1.000000e-03
  0.00000000  0.20000000  0.60000000  1.000000e-03
  0.00000000  0.20000000  0.70000000  1.000000e-03
  0.00000000  0.20000000  0.80000000  1.000000e-03
  0.00000000  0.20000000  0.90000000  1.000000e-03
  0.00000000  0.30000000  0.00000000  1.000000e-03
  0.00000000  0.30000000  0.10000000  1.000000e-03
  0.00000000  0.30000000  0.20000000  1.000000e-03
  0.00000000  0.30000000  0.30000000  1.000000e-03
  0.00000000  0.30000000  0.40000000  1.000000e-03
  0.00000000  0.30000000  0.50000000  1.000000e-03
  0.00000000  0.30000000  0.60000000  1.000000e-03
  0.00000000  0.30000000  0.70000000  1.000000e-03
  0.00000000  0.30000000  0.80000000  1.000000e-03
  0.00000000  0.30000000  0.90000000  1.000000e-03
  0.00000000  0.40000000  0.00000000  1.000000e-03
  0.00000000  0.40000000  0.10000000  1.000000e-03
  0.00000000  0.40000000  0.20000000  1.000000e-03
  0.00000000  0.40000000  0.30000000  1.000000e-03
  0.00000000  0.40000000  0.40000000  1.000000e-03
  0.00000000  0.40000000  0.50000000  1.000000e-03
  0.00000000  0.40000000  0.60000000  1.000000e-03
  0.00000000  0.40000000  0.70000000  1.000000e-03
  0.00000000  0.40000000  0.80000000  1.000000e-03
  0.00000000  0.40000000  0.90000000  1.000000e-03
  0.00000000  0.50000000  0.00000000  1.000000e-03
  0.00000000  0.50000000  0.10000000  1.000000e-03
  0.00000000  0.50000000  0.20000000  1.000000e-03
  0.00000000  0.50000000  0.30000000  1.000000e-03
  0.00000000  0.50000000  0.40000000  1.000000e-03
  0.00000000  0.50000000  0.50000000  1.000000e-03
  0.00000000  0.50000000  0.60000000  1.000000e-03
  0.00000000  0.50000000  0.70000000  1.000000e-03
  0.00000000  0.50000000  0.80000000  1.000000e-03
  0.00000000  0.50000000  0.90000000  1.000000e-03
  0.00000000  0.60000000  0.00000000  1.000000e-03
  0.00000000  0.60000000  0.10000000  1.000000e-03
  0.00000000  0.60000000  0.20000000  1.000000e-03
  0.00000000  0.60000000  0.30000000  1.000000e-03
  0.00000000  0.60000000  0.40000000  1.000000e-03
  0.00000000  0.60000000  0.50000000  1.000000e-03
  0.00000000  0.60000000  0.60000000  1.000000e-03
  0.00000000  0.60000000  0.70000000  1.000000e-03
  0.00000000  0.60000000  0.80000000  1.000000e-03
  0.00000000  0.60000000  0.90000000  1.000000e-03
  0.00000000  0.70000000  0.00000000  1.000000e-03
  0.00000000  0.70000000  0.10000000  1.000000e-03
  0.00000000  0.70000000  0.20000000  1.000000e-03
  0.00000000  0.70000000  0.30000000  1.000000e-03
  0.00000000  0.70000000  0.40000000  1.000000e-03
  0.00000000  0.70000000  0.50000000  1.000000e-03
  0.00000000  0.70000000  0.60000000  1.000000e-03
  0.00000000  0.70000000  0.70000000  1.000000e-03
  0.00000000  0.70000000  0.80000000  1.000000e-03
  0.00000000  0.70000000  0.90000000  1.000000e-03
  0.00000000  0.80000000  0.00000000  1.000000e-03
  0.00000000  0.80000000  0.10000000  1.000000e-03
  0.00000000  0.80000000  0.20000000  1.000000e-03
  0.00000000  0.80000000  0.30000000  1.000000e-03
  0.00000000  0.80000000  0.40000000  1.000000e-03
  0.00000000  0.80000000  0.50000000  1.000000e-03
  0.00000000  0.80000000  0.60000000  1.000000e-03
  0.00000000  0.80000000  0.70000000  1.000000e-03
  0.00000000  0.80000000  0.80000000  1.000000e-03
  0.00000000  0.80000000  0.90000000  1.000000e-03
  0.00000000  0.90000000  0.00000000  1.000000e-03
  0.00000000  0.90000000  0.10000000  1.000000e-03
  0.00000000  0.90000000  0.20000000  1.000000e-03
  0.00000000  0.90000000  0.30000000  1.000000e-03
  0.00000000  0.90000000  0.40000000  1.000000e-03
  0.00000000  0.90000000  0.50000000  1.000000e-03
  0.00000000  0.90000000  0.60000000  1.000000e-03
  0.00000000  0.90000000  0.70000000  1.000000e-03
  0.00000000  0.90000000  0.80000000  1.000000e-03
  0.00000000  0.90000000  0.90000000  1.000000e-03
  0.10000000  0.00000000  0.00000000  1.000000e-03
  0.10000000  0.00000000  0.10000000  1.000000e-03
  0.10000000  0.00000000  0.20000000  1.000000e-03
  0.10000000  0.00000000  0.30000000  1.000000e-03
  0.10000000  0.00000000  0.40000000  1.000000e-03
  0.10000000  0.00000000  0.50000000  1.000000e-03
  0.10000000  0.00000000  0.60000000  1.000000e-03
  0.10000000  0.00000000  0.70000000  1.000000e-03
  0.10000000  0.00000000  0.80000000  1.000000e-03
  0.10000000  0.00000000  0.90000000  1.000000e-03
  0.10000000  0.10000000  0.00000000  1.000000e-03
  0.10000000  0.10000000  0.10000000  1.000000e-03
  0.10000000  0.10000000  0.20000000  1.000000e-03
  0.10000000  0.10000000  0.30000000  1.000000e-03
  0.10000000  0.10000000  0.40000000  1.000000e-03
  0.10000000  0.10000000  0.50000000  1.000000e-03
  0.10000000  0.10000000  0.60000000  1.000000e-03
  0.10000000  0.10000000  0.70000000  1.000000e-03
  0.10000000  0.10000000  0.80000000  1.000000e-03
  0.10000000  0.10000000  0.90000000  1.000000e-03
  0.10000000  0.20000000  0.00000000  1.000000e-03
  0.10000000  0.20000000  0.10000000  1.000000e-03
  0.10000000  0.20000000  0.20000000  1.000000e-03
  0.10000000  0.20000000  0.30000000  1.000000e-03
  0.10000000  0.20000000  0.40000000  1.000000e-03
  0.10000000  0.20000000  0.50000000  1.000000e-03
  0.10000000  0.20000000  0.60000000  1.000000e-03
  0.10000000  0.20000000  0.70000000  1.000000e-03
  0.10000000  0.20000000  0.80000000  1.000000e-03
  0.10000000  0.20000000  0.90000000  1.000000e-03
  0.10000000  0.30000000  0.00000000  1.000000e-03
  0.10000000  0.30000000  0.10000000  1.000000e-03
  0.10000000  0.30000000  0.20000000  1.000000e-03
  0.10000000  0.30000000  0.30000000  1.000000e-03
  0.10000000  0.30000000  0.40000000  1.000000e-03
  0.10000000  0.30000000  0.50000000  1.000000e-03
  0.10000000  0.30000000  0.60000000  1.000000e-03
  0.10000000  0.30000000  0.70000000  1.000000e-03
  0.10000000  0.30000000  0.80000000  1.000000e-03
  0.10000000  0.30000000  0.90000000  1.000000e-03
  0.10000000  0.40000000  0.00000000  1.000000e-03
  0.10000000  0.40000000  0.10000000  1.000000e-03
  0.10000000  0.40000000  0.20000000  1.000000e-03
  0.10000000  0.40000000  0.30000000  1.000000e-03
  0.10000000  0.40000000  0.40000000  1.000000e-03
  0.10000000  0.40000000  0.50000000  1.000000e-03
  0.10000000  0.40000000  0.60000000  1.000000e-03
  0.10000000  0.40000000  0.70000000  1.000000e-03
  0.10000000  0.40000000  0.80000000  1.000000e-03
  0.10000000  0.40000000  0.90000000  1.000000e-03
  0.10000000  0.50000000  0.00000000  1.000000e-03
  0.10000000  0.50000000  0.10000000  1.000000e-03
  0.10000000  0.50000000  0.20000000  1.000000e-03
  0.10000000  0.50000000  0.30000000  1.000000e-03
  0.10000000  0.50000000  0.40000000  1.000000e-03
  0.10000000  0.50000000  0.50000000  1.000000e-03
  0.10000000  0.50000000  0.60000000  1.000000e-03
  0.10000000  0.50000000  0.70000000  1.000000e-03
  0.10000000  0.50000000  0.80000000  1.000000e-03
  0.10000000  0.50000000  0.90000000  1.000000e-03
  0.10000000  0.60000000  0.00000000  1.000000e-03
  0.10000000  0.60000000  0.10000000  1.000000e-03
  0.10000000  0.60000000  0.20000000  1.000000e-03
  0.10000000  0.60000000  0.30000000  1.000000e-03
  0.10000000  0.60000000  0.40000000  1.000000e-03
  0.10000000  0.60000000  0.50000000  1.000000e-03
  0.10000000  0.60000000  0.60000000  1.000000e-03
  0.10000000  0.60000000  0.70000000  1.000000e-03
  0.10000000  0.60000000  0.80000000  1.000000e-03
  0.10000000  0.60000000  0.90000000  1.000000e-03
  0.10000000  0.70000000  0.00000000  1.000000e-03
  0.10000000  0.70000000  0.10000000  1.000000e-03
  0.10000000  0.70000000  0.20000000  1.000000e-03
  0.10000000  0.70000000  0.30000000  1.000000e-03
  0.10000000  0.70000000  0.40000000  1.000000e-03
  0.10000000  0.70000000  0.50000000  1.000000e-03
  0.10000000  0.70000000  0.60000000  1.000000e-03
  0.10000000  0.70000000  0.70000000  1.000000e-03
  0.10000000  0.70000000  0.80000000  1.000000e-03
  0.10000000  0.70000000  0.90000000  1.000000e-03
  0.10000000  0.80000000  0.00000000  1.000000e-03
  0.10000000  0.80000000  0.10000000  1.000000e-03
  0.10000000  0.80000000  0.20000000  1.000000e-03
  0.10000000  0.80000000  0.30000000  1.000000e-03
  0.10000000  0.80000000  0.40000000  1.000000e-03
  0.10000000  0.80000000  0.50000000  1.000000e-03
  0.10000000  0.80000000  0.60000000  1.000000e-03
  0.10000000  0.80000000  0.70000000  1.000000e-03
  0.10000000  0.80000000  0.80000000  1.000000e-03
  0.10000000  0.80000000  0.90000000  1.000000e-03
  0.10000000  0.90000000  0.00000000  1.000000e-03
  0.10000000  0.90000000  0.10000000  1.000000e-03
  0.10000000  0.90000000  0.20000000  1.000000e-03
  0.10000000  0.90000000  0.30000000  1.000000e-03
  0.10000000  0.90000000  0.40000000  1.000000e-03
  0.10000000  0.90000000  0.50000000  1.000000e-03
  0.10000000  0.90000000  0.60000000  1.000000e-03
  0.10000000  0.90000000  0.70000000  1.000000e-03
  0.10000000  0.90000000  0.80000000  1.000000e-03
  0.10000000  0.90000000  0.90000000  1.000000e-03
  0.20000000  0.00000000  0.00000000  1.000000e-03
  0.20000000  0.00000000  0.10000000  1.000000e-03
  0.20000000  0.00000000  0.20000000  1.000000e-03
  0.20000000  0.00000000  0.30000000  1.000000e-03
  0.20000000  0.00000000  0.40000000  1.000000e-03
  0.20000000  0.00000000  0.50000000  1.000000e-03
  0.20000000  0.00000000  0.60000000  1.000000e-03
  0.20000000  0.00000000  0.70000000  1.000000e-03
  0.20000000  0.00000000  0.80000000  1.000000e-03
  0.20000000  0.00000000  0.90000000  1.000000e-03
  0.20000000  0.10000000  0.00000000  1.000000e-03
  0.20000000  0.10000000  0.10000000  1.000000e-03
  0.20000000  0.10000000  0.20000000  1.000000e-03
  0.20000000  0.10000000  0.30000000  1.000000e-03
  0.20000000  0.10000000  0.40000000  1.000000e-03
  0.20000000  0.10000000  0.50000000  1.000000e-03
  0.20000000  0.10000000  0.60000000  1.000000e-03
  0.20000000  0.10000000  0.70000000  1.000000e-03
  0.20000000  0.10000000  0.80000000  1.000000e-03
  0.20000000  0.10000000  0.90000000  1.000000e-03
  0.20000000  0.20000000  0.00000000  1.000000e-03
  0.20000000  0.20000000  0.10000000  1.000000e-03
  0.20000000  0.20000000  0.20000000  1.000000e-03
  0.20000000  0.20000000  0.30000000  1.000000e-03
  0.20000000  0.20000000  0.40000000  1.000000e-03
  0.20000000  0.20000000  0.50000000  1.000000e-03
  0.20000000  0.20000000  0.60000000  1.000000e-03
  0.20000000  0.20000000  0.70000000  1.000000e-03
  0.20000000  0.20000000  0.80000000  1.000000e-03
  0.20000000  0.20000000  0.90000000  1.000000e-03
  0.20000000  0.30000000  0.00000000  1.000000e-03
  0.20000000  0.30000000  0.10000000  1.000000e-03
  0.20000000  0.30000000  0.20000000  1.000000e-03
  0.20000000  0.30000000  0.30000000  1.000000e-03
  0.20000000  0.30000000  0.40000000  1.000000e-03
  0.20000000  0.30000000  0.50000000  1.000000e-03
  0.20000000  0.30000000  0.60000000  1.000000e-03
  0.20000000  0.30000000  0.70000000  1.000000e-03
  0.20000000  0.30000000  0.80000000  1.000000e-03
  0.20000000  0.30000000  0.90000000  1.000000e-03
  0.20000000  0.40000000  0.00000000  1.000000e-03
  0.20000000  0.40000000  0.10000000  1.000000e-03
  0.20000000  0.40000000  0.20000000  1.000000e-03
  0.20000000  0.40000000  0.30000000  1.000000e-03
  0.20000000  0.40000000  0.40000000  1.000000e-03
  0.20000000  0.40000000  0.50000000  1.000000e-03
  0.20000000  0.40000000  0.60000000  1.000000e-03
  0.20000000  0.40000000  0.70000000  1.000000e-03
  0.20000000  0.40000000  0.80000000  1.000000e-03
  0.20000000  0.40000000  0.90000000  1.000000e-03
  0.20000000  0.50000000  0.00000000  1.000000e-03
  0.20000000  0.50000000  0.10000000  1.000000e-03
  0.20000000  0.50000000  0.20000000  1.000000e-03
  0.20000000  0.50000000  0.30000000  1.000000e-03
  0.20000000  0.50000000  0.40000000  1.000000e-03
  0.20000000  0.50000000  0.50000000  1.000000e-03
  0.20000000  0.50000000  0.60000000  1.000000e-03
  0.20000000  0.50000000  0.70000000  1.000000e-03
  0.20000000  0.50000000  0.80000000  1.000000e-03
  0.20000000  0.50000000  0.90000000  1.000000e-03
  0.20000000  0.60000000  0.00000000  1.000000e-03
  0.20000000  0.60000000  0.10000000  1.000000e-03
  0.20000000  0.60000000  0.20000000  1.000000e-03
  0.20000000  0.60000000  0.30000000  1.000000e-03
  0.20000000  0.60000000  0.40000000  1.000000e-03
  0.20000000  0.60000000  0.50000000  1.000000e-03
  0.20000000  0.60000000  0.60000000  1.000000e-03
  0.20000000  0.60000000  0.70000000  1.000000e-03
  0.20000000  0.60000000  0.80000000  1.000000e-03
  0.20000000  0.60000000  0.90000000  1.000000e-03
  0.20000000  0.70000000  0.00000000  1.000000e-03
  0.20000000  0.70000000  0.10000000  1.000000e-03
  0.20000000  0.70000000  0.20000000  1.000000e-03
  0.20000000  0.70000000  0.30000000  1.000000e-03
  0.20000000  0.70000000  0.40000000  1.000000e-03
  0.20000000  0.70000000  0.50000000  1.000000e-03
  0.20000000  0.70000000  0.60000000  1.000000e-03
  0.20000000  0.70000000  0.70000000  1.000000e-03
  0.20000000  0.70000000  0.80000000  1.000000e-03
  0.20000000  0.70000000  0.90000000  1.000000e-03
  0.20000000  0.80000000  0.00000000  1.000000e-03
  0.20000000  0.80000000  0.10000000  1.000000e-03
  0.20000000  0.80000000  0.20000000  1.000000e-03
  0.20000000  0.80000000  0.30000000  1.000000e-03
  0.20000000  0.80000000  0.40000000  1.000000e-03
  0.20000000  0.80000000  0.50000000  1.000000e-03
  0.20000000  0.80000000  0.60000000  1.000000e-03
  0.20000000  0.80000000  0.70000000  1.000000e-03
  0.20000000  0.80000000  0.80000000  1.000000e-03
  0.20000000  0.80000000  0.90000000  1.000000e-03
  0.20000000  0.90000000  0.00000000  1.000000e-03
  0.20000000  0.90000000  0.10000000  1.000000e-03
  0.20000000  0.90000000  0.20000000  1.000000e-03
  0.20000000  0.90000000  0.30000000  1.000000e-03
  0.20000000  0.90000000  0.40000000  1.000000e-03
  0.20000000  0.90000000  0.50000000  1.000000e-03
  0.20000000  0.90000000  0.60000000  1.000000e-03
  0.20000000  0.90000000  0.70000000  1.000000e-03
  0.20000000  0.90000000  0.80000000  1.000000e-03
  0.20000000  0.90000000  0.90000000  1.000000e-03
  0.30000000  0.00000000  0.00000000  1.000000e-03
  0.30000000  0.00000000  0.10000000  1.000000e-03
  0.30000000  0.00000000  0.20000000  1.000000e-03
  0.30000000  0.00000000  0.30000000  1.000000e-03
  0.30000000  0.00000000  0.40000000  1.000000e-03
  0.30000000  0.00000000  0.50000000  1.000000e-03
  0.30000000  0.00000000  0.60000000  1.000000e-03
  0.30000000  0.00000000  0.70000000  1.000000e-03
  0.30000000  0.00000000  0.80000000  1.000000e-03
  0.30000000  0.00000000  0.90000000  1.000000e-03
  0.30000000  0.10000000  0.00000000  1.000000e-03
  0.30000000  0.10000000  0.10000000  1.000000e-03
  0.30000000  0.10000000  0.20000000  1.000000e-03
  0.30000000  0.10000000  0.30000000  1.000000e-03
  0.30000000  0.10000000  0.40000000  1.000000e-03
  0.30000000  0.10000000  0.50000000  1.000000e-03
  0.30000000  0.10000000  0.60000000  1.000000e-03
  0.30000000  0.10000000  0.70000000  1.000000e-03
  0.30000000  0.10000000  0.80000000  1.000000e-03
  0.30000000  0.10000000  0.90000000  1.000000e-03
  0.30000000  0.20000000  0.00000000  1.000000e-03
  0.30000000  0.20000000  0.10000000  1.000000e-03
  0.30000000  0.20000000  0.20000000  1.000000e-03
  0.30000000  0.20000000  0.30000000  1.000000e-03
  0.30000000  0.20000000  0.40000000  1.000000e-03
  0.30000000  0.20000000  0.50000000  1.000000e-03
  0.30000000  0.20000000  0.60000000  1.000000e-03
  0.30000000  0.20000000  0.70000000  1.000000e-03
  0.30000000  0.20000000  0.80000000  1.000000e-03
  0.30000000  0.20000000  0.90000000  1.000000e-03
  0.30000000  0.30000000  0.00000000  1.000000e-03
  0.30000000  0.30000000  0.10000000  1.000000e-03
  0.30000000  0.30000000  0.20000000  1.000000e-03
  0.30000000  0.30000000  0.30000000  1.000000e-03
  0.30000000  0.30000000  0.40000000  1.000000e-03
  0.30000000  0.30000000  0.50000000  1.000000e-03
  0.30000000  0.30000000  0.60000000  1.000000e-03
  0.30000000  0.30000000  0.70000000  1.000000e-03
  0.30000000  0.30000000  0.80000000  1.000000e-03
  0.30000000  0.30000000  0.90000000  1.000000e-03
  0.30000000  0.40000000  0.00000000  1.000000e-03
  0.30000000  0.40000000  0.10000000  1.000000e-03
  0.30000000  0.40000000  0.20000000  1.000000e-03
  0.30000000  0.40000000  0.30000000  1.000000e-03
  0.30000000  0.40000000  0.40000000  1.000000e-03
  0.30000000  0.40000000  0.50000000  1.000000e-03
  0.30000000  0.40000000  0.60000000  1.000000e-03
  0.30000000  0.40000000  0.70000000  1.000000e-03
  0.30000000  0.40000000  0.80000000  1.000000e-03
  0.30000000  0.40000000  0.90000000  1.000000e-03
  0.30000000  0.50000000  0.00000000  1.000000e-03
  0.30000000  0.50000000  0.10000000  1.000000e-03
  0.30000000  0.50000000  0.20000000  1.000000e-03
  0.30000000  0.50000000  0.30000000  1.000000e-03
  0.30000000  0.50000000  0.40000000  1.000000e-03
  0.30000000  0.50000000  0.50000000  1.000000e-03
  0.30000000  0.50000000  0.60000000  1.000000e-03
  0.30000000  0.50000000  0.70000000  1.000000e-03
  0.30000000  0.50000000  0.80000000  1.000000e-03
  0.30000000  0.50000000  0.90000000  1.000000e-03
  0.30000000  0.60000000  0.00000000  1.000000e-03
  0.30000000  0.60000000  0.10000000  1.000000e-03
  0.30000000  0.60000000  0.20000000  1.000000e-03
  0.30000000  0.60000000  0.30000000  1.000000e-03
  0.30000000  0.60000000  0.40000000  1.000000e-03
  0.30000000  0.60000000  0.50000000  1.000000e-03
  0.30000000  0.60000000  0.60000000  1.000000e-03
  0.30000000  0.60000000  0.70000000  1.000000e-03
  0.30000000  0.60000000  0.80000000  1.000000e-03
  0.30000000  0.60000000  0.90000000  1.000000e-03
  0.30000000  0.70000000  0.00000000  1.000000e-03
  0.30000000  0.70000000  0.10000000  1.000000e-03
  0.30000000  0.70000000  0.20000000  1.000000e-03
  0.30000000  0.70000000  0.30000000  1.000000e-03
  0.30000000  0.70000000  0.40000000  1.000000e-03
  0.30000000  0.70000000  0.50000000  1.000000e-03
  0.30000000  0.70000000  0.60000000  1.000000e-03
  0.30000000  0.70000000  0.70000000  1.000000e-03
  0.30000000  0.70000000  0.80000000  1.000000e-03
  0.30000000  0.70000000  0.90000000  1.000000e-03
  0.30000000  0.80000000  0.00000000  1.000000e-03
  0.30000000  0.80000000  0.10000000  1.000000e-03
  0.30000000  0.80000000  0.20000000  1.000000e-03
  0.30000000  0.80000000  0.30000000  1.000000e-03
  0.30000000  0.80000000  0.40000000  1.000000e-03
  0.30000000  0.80000000  0.50000000  1.000000e-03
  0.30000000  0.80000000  0.60000000  1.000000e-03
  0.30000000  0.80000000  0.70000000  1.000000e-03
  0.30000000  0.80000000  0.80000000  1.000000e-03
  0.30000000  0.80000000  0.90000000  1.000000e-03
  0.30000000  0.90000000  0.00000000  1.000000e-03
  0.30000000  0.90000000  0.10000000  1.000000e-03
  0.30000000  0.90000000  0.20000000  1.000000e-03
  0.30000000  0.90000000  0.30000000  1.000000e-03
  0.30000000  0.90000000  0.40000000  1.000000e-03
  0.30000000  0.90000000  0.50000000  1.000000e-03
  0.30000000  0.90000000  0.60000000  1.000000e-03
  0.30000000  0.90000000  0.70000000  1.000000e-03
  0.30000000  0.90000000  0.80000000  1.000000e-03
  0.30000000  0.90000000  0.90000000  1.000000e-03
  0.40000000  0.00000000  0.00000000  1.000000e-03
  0.40000000  0.00000000  0.10000000  1.000000e-03
  0.40000000  0.00000000  0.20000000  1.000000e-03
  0.40000000  0.00000000  0.30000000  1.000000e-03
  0.40000000  0.00000000  0.40000000  1.000000e-03
  0.40000000  0.00000000  0.50000000  1.000000e-03
  0.40000000  0.00000000  0.60000000  1.000000e-03
  0.40000000  0.00000000  0.70000000  1.000000e-03
  0.40000000  0.00000000  0.80000000  1.000000e-03
  0.40000000  0.00000000  0.90000000  1.000000e-03
  0.40000000  0.10000000  0.00000000  1.000000e-03
  0.40000000  0.10000000  0.10000000  1.000000e-03
  0.40000000  0.10000000  0.20000000  1.000000e-03
  0.40000000  0.10000000  0.30000000  1.000000e-03
  0.40000000  0.10000000  0.40000000  1.000000e-03
  0.40000000  0.10000000  0.50000000  1.000000e-03
  0.40000000  0.10000000  0.60000000  1.000000e-03
  0.40000000  0.10000000  0.70000000  1.000000e-03
  0.40000000  0.10000000  0.80000000  1.000000e-03
  0.40000000  0.10000000  0.90000000  1.000000e-03
  0.40000000  0.20000000  0.00000000  1.000000e-03
  0.40000000  0.20000000  0.10000000  1.000000e-03
  0.40000000  0.20000000  0.20000000  1.000000e-03
  0.40000000  0.20000000  0.30000000  1.000000e-03
  0.40000000  0.20000000  0.40000000  1.000000e-03
  0.40000000  0.20000000  0.50000000  1.000000e-03
  0.40000000  0.20000000  0.60000000  1.000000e-03
  0.40000000  0.20000000  0.70000000  1.000000e-03
  0.40000000  0.20000000  0.80000000  1.000000e-03
  0.40000000  0.20000000  0.90000000  1.000000e-03
  0.40000000  0.30000000  0.00000000  1.000000e-03
  0.40000000  0.30000000  0.10000000  1.000000e-03
  0.40000000  0.30000000  0.20000000  1.000000e-03
  0.40000000  0.30000000  0.30000000  1.000000e-03
  0.40000000  0.30000000  0.40000000  1.000000e-03
  0.40000000  0.30000000  0.50000000  1.000000e-03
  0.40000000  0.30000000  0.60000000  1.000000e-03
  0.40000000  0.30000000  0.70000000  1.000000e-03
  0.40000000  0.30000000  0.80000000  1.000000e-03
  0.40000000  0.30000000  0.90000000  1.000000e-03
  0.40000000  0.40000000  0.00000000  1.000000e-03
  0.40000000  0.40000000  0.10000000  1.000000e-03
  0.40000000  0.40000000  0.20000000  1.000000e-03
  0.40000000  0.40000000  0.30000000  1.000000e-03
  0.40000000  0.40000000  0.40000000  1.000000e-03
  0.40000000  0.40000000  0.50000000  1.000000e-03
  0.40000000  0.40000000  0.60000000  1.000000e-03
  0.40000000  0.40000000  0.70000000  1.000000e-03
  0.40000000  0.40000000  0.80000000  1.000000e-03
  0.40000000  0.40000000  0.90000000  1.000000e-03
  0.40000000  0.50000000  0.00000000  1.000000e-03
  0.40000000  0.50000000  0.10000000  1.000000e-03
  0.40000000  0.50000000  0.20000000  1.000000e-03
  0.40000000  0.50000000  0.30000000  1.000000e-03
  0.40000000  0.50000000  0.40000000  1.000000e-03
  0.40000000  0.50000000  0.50000000  1.000000e-03
  0.40000000  0.50000000  0.60000000  1.000000e-03
  0.40000000  0.50000000  0.70000000  1.000000e-03
  0.40000000  0.50000000  0.80000000  1.000000e-03
  0.40000000  0.50000000  0.90000000  1.000000e-03
  0.40000000  0.60000000  0.00000000  1.000000e-03
  0.40000000  0.60000000  0.10000000  1.000000e-03
  0.40000000  0.60000000  0.20000000  1.000000e-03
  0.40000000  0.60000000  0.30000000  1.000000e-03
  0.40000000  0.60000000  0.40000000  1.000000e-03
  0.40000000  0.60000000  0.50000000  1.000000e-03
  0.40000000  0.60000000  0.60000000  1.000000e-03
  0.40000000  0.60000000  0.70000000  1.000000e-03
  0.40000000  0.60000000  0.80000000  1.000000e-03
  0.40000000  0.60000000  0.90000000  1.000000e-03
  0.40000000  0.70000000  0.00000000  1.000000e-03
  0.40000000  0.70000000  0.10000000  1.000000e-03
  0.40000000  0.70000000  0.20000000  1.000000e-03
  0.40000000  0.70000000  0.30000000  1.000000e-03
  0.40000000  0.70000000  0.40000000  1.000000e-03
  0.40000000  0.70000000  0.50000000  1.000000e-03
  0.40000000  0.70000000  0.60000000  1.000000e-03
  0.40000000  0.70000000  0.70000000  1.000000e-03
  0.40000000  0.70000000  0.80000000  1.000000e-03
  0.40000000  0.70000000  0.90000000  1.000000e-03
  0.40000000  0.80000000  0.00000000  1.000000e-03
  0.40000000  0.80000000  0.10000000  1.000000e-03
  0.40000000  0.80000000  0.20000000  1.000000e-03
  0.40000000  0.80000000  0.30000000  1.000000e-03
  0.40000000  0.80000000  0.40000000  1.000000e-03
  0.40000000  0.80000000  0.50000000  1.000000e-03
  0.40000000  0.80000000  0.60000000  1.000000e-03
  0.40000000  0.80000000  0.70000000  1.000000e-03
  0.40000000  0.80000000  0.80000000  1.000000e-03
  0.40000000  0.80000000  0.90000000  1.000000e-03
  0.40000000  0.90000000  0.00000000  1.000000e-03
  0.40000000  0.90000000  0.10000000  1.000000e-03
  0.40000000  0.90000000  0.20000000  1.000000e-03
  0.40000000  0.90000000  0.30000000  1.000000e-03
  0.40000000  0.90000000  0.40000000  1.000000e-03
  0.40000000  0.90000000  0.50000000  1.000000e-03
  0.40000000  0.90000000  0.60000000  1.000000e-03
  0.40000000  0.90000000  0.70000000  1.000000e-03
  0.40000000  0.90000000  0.80000000  1.000000e-03
  0.40000000  0.90000000  0.90000000  1.000000e-03
  0.50000000  0.00000000  0.00000000  1.000000e-03
  0.50000000  0.00000000  0.10000000  1.000000e-03
  0.50000000  0.00000000  0.20000000  1.000000e-03
  0.50000000  0.00000000  0.30000000  1.000000e-03
  0.50000000  0.00000000  0.40000000  1.000000e-03
  0.50000000  0.00000000  0.50000000  1.000000e-03
  0.50000000  0.00000000  0.60000000  1.000000e-03
  0.50000000  0.00000000  0.70000000  1.000000e-03
  0.50000000  0.00000000  0.80000000  1.000000e-03
  0.50000000  0.00000000  0.90000000  1.000000e-03
  0.50000000  0.10000000  0.00000000  1.000000e-03
  0.50000000  0.10000000  0.10000000  1.000000e-03
  0.50000000  0.10000000  0.20000000  1.000000e-03
  0.50000000  0.10000000  0.30000000  1.000000e-03
  0.50000000  0.10000000  0.40000000  1.000000e-03
  0.50000000  0.10000000  0.50000000  1.000000e-03
  0.50000000  0.10000000  0.60000000  1.000000e-03
  0.50000000  0.10000000  0.70000000  1.000000e-03
  0.50000000  0.10000000  0.80000000  1.000000e-03
  0.50000000  0.10000000  0.90000000  1.000000e-03
  0.50000000  0.20000000  0.00000000  1.000000e-03
  0.50000000  0.20000000  0.10000000  1.000000e-03
  0.50000000  0.20000000  0.20000000  1.000000e-03
  0.50000000  0.20000000  0.30000000  1.000000e-03
  0.50000000  0.20000000  0.40000000  1.000000e-03
  0.50000000  0.20000000  0.50000000  1.000000e-03
  0.50000000  0.20000000  0.60000000  1.000000e-03
  0.50000000  0.20000000  0.70000000  1.000000e-03
  0.50000000  0.20000000  0.80000000  1.000000e-03
  0.50000000  0.20000000  0.90000000  1.000000e-03
  0.50000000  0.30000000  0.00000000  1.000000e-03
  0.50000000  0.30000000  0.10000000  1.000000e-03
  0.50000000  0.30000000  0.20000000  1.000000e-03
  0.50000000  0.30000000  0.30000000  1.000000e-03
  0.50000000  0.30000000  0.40000000  1.000000e-03
  0.50000000  0.30000000  0.50000000  1.000000e-03
  0.50000000  0.30000000  0.60000000  1.000000e-03
  0.50000000  0.30000000  0.70000000  1.000000e-03
  0.50000000  0.30000000  0.80000000  1.000000e-03
  0.50000000  0.30000000  0.90000000  1.000000e-03
  0.50000000  0.40000000  0.00000000  1.000000e-03
  0.50000000  0.40000000  0.10000000  1.000000e-03
  0.50000000  0.40000000  0.20000000  1.000000e-03
  0.50000000  0.40000000  0.30000000  1.000000e-03
  0.50000000  0.40000000  0.40000000  1.000000e-03
  0.50000000  0.40000000  0.50000000  1.000000e-03
  0.50000000  0.40000000  0.60000000  1.000000e-03
  0.50000000  0.40000000  0.70000000  1.000000e-03
  0.50000000  0.40000000  0.80000000  1.000000e-03
  0.50000000  0.40000000  0.90000000  1.000000e-03
  0.50000000  0.50000000  0.00000000  1.000000e-03
  0.50000000  0.50000000  0.10000000  1.000000e-03
  0.50000000  0.50000000  0.20000000  1.000000e-03
  0.50000000  0.50000000  0.30000000  1.000000e-03
  0.50000000  0.50000000  0.40000000  1.000000e-03
  0.50000000  0.50000000  0.50000000  1.000000e-03
  0.50000000  0.50000000  0.60000000  1.000000e-03
  0.50000000  0.50000000  0.70000000  1.000000e-03
  0.50000000  0.50000000  0.80000000  1.000000e-03
  0.50000000  0.50000000  0.90000000  1.000000e-03
  0.50000000  0.60000000  0.00000000  1.000000e-03
  0.50000000  0.60000000  0.10000000  1.000000e-03
  0.50000000  0.60000000  0.20000000  1.000000e-03
  0.50000000  0.60000000  0.30000000  1.000000e-03
  0.50000000  0.60000000  0.40000000  1.000000e-03
  0.50000000  0.60000000  0.50000000  1.000000e-03
  0.50000000  0.60000000  0.60000000  1.000000e-03
  0.50000000  0.60000000  0.70000000  1.000000e-03
  0.50000000  0.60000000  0.80000000  1.000000e-03
  0.50000000  0.60000000  0.90000000  1.000000e-03
  0.50000000  0.70000000  0.00000000  1.000000e-03
  0.50000000  0.70000000  0.10000000  1.000000e-03