&inputpp 
   outdir          = './work/'
   prefix          = 'GaAs'
   seedname        = 'GaAs'
   spin_component  = 'none'
   write_mmn       = .true.
   write_amn       = .true.
   write_unk       = .false.
/
